; label array extracted from german_numeric.csv
(declare-const O (Array Int Int))
(define-fun m () Int 200)

(assert (= (select O 0) 1))
(assert (= (select O 1) 2))
(assert (= (select O 2) 1))
(assert (= (select O 3) 1))
(assert (= (select O 4) 2))
(assert (= (select O 5) 1))
(assert (= (select O 6) 1))
(assert (= (select O 7) 1))
(assert (= (select O 8) 1))
(assert (= (select O 9) 2))
(assert (= (select O 10) 2))
(assert (= (select O 11) 2))
(assert (= (select O 12) 1))
(assert (= (select O 13) 2))
(assert (= (select O 14) 1))
(assert (= (select O 15) 2))
(assert (= (select O 16) 1))
(assert (= (select O 17) 1))
(assert (= (select O 18) 2))
(assert (= (select O 19) 1))
(assert (= (select O 20) 1))
(assert (= (select O 21) 1))
(assert (= (select O 22) 1))
(assert (= (select O 23) 1))
(assert (= (select O 24) 1))
(assert (= (select O 25) 1))
(assert (= (select O 26) 1))
(assert (= (select O 27) 1))
(assert (= (select O 28) 1))
(assert (= (select O 29) 2))
(assert (= (select O 30) 1))
(assert (= (select O 31) 1))
(assert (= (select O 32) 1))
(assert (= (select O 33) 1))
(assert (= (select O 34) 1))
(assert (= (select O 35) 2))
(assert (= (select O 36) 1))
(assert (= (select O 37) 2))
(assert (= (select O 38) 1))
(assert (= (select O 39) 1))
(assert (= (select O 40) 1))
(assert (= (select O 41) 1))
(assert (= (select O 42) 1))
(assert (= (select O 43) 1))
(assert (= (select O 44) 2))
(assert (= (select O 45) 1))
(assert (= (select O 46) 1))
(assert (= (select O 47) 1))
(assert (= (select O 48) 1))
(assert (= (select O 49) 1))
(assert (= (select O 50) 1))
(assert (= (select O 51) 1))
(assert (= (select O 52) 1))
(assert (= (select O 53) 1))
(assert (= (select O 54) 2))
(assert (= (select O 55) 1))
(assert (= (select O 56) 2))
(assert (= (select O 57) 1))
(assert (= (select O 58) 1))
(assert (= (select O 59) 2))
(assert (= (select O 60) 1))
(assert (= (select O 61) 1))
(assert (= (select O 62) 2))
(assert (= (select O 63) 2))
(assert (= (select O 64) 1))
(assert (= (select O 65) 1))
(assert (= (select O 66) 1))
(assert (= (select O 67) 1))
(assert (= (select O 68) 2))
(assert (= (select O 69) 1))
(assert (= (select O 70) 1))
(assert (= (select O 71) 1))
(assert (= (select O 72) 1))
(assert (= (select O 73) 1))
(assert (= (select O 74) 2))
(assert (= (select O 75) 1))
(assert (= (select O 76) 2))
(assert (= (select O 77) 1))
(assert (= (select O 78) 1))
(assert (= (select O 79) 1))
(assert (= (select O 80) 2))
(assert (= (select O 81) 1))
(assert (= (select O 82) 1))
(assert (= (select O 83) 1))
(assert (= (select O 84) 1))
(assert (= (select O 85) 1))
(assert (= (select O 86) 1))
(assert (= (select O 87) 2))
(assert (= (select O 88) 1))
(assert (= (select O 89) 2))
(assert (= (select O 90) 1))
(assert (= (select O 91) 1))
(assert (= (select O 92) 2))
(assert (= (select O 93) 1))
(assert (= (select O 94) 1))
(assert (= (select O 95) 2))
(assert (= (select O 96) 1))
(assert (= (select O 97) 1))
(assert (= (select O 98) 1))
(assert (= (select O 99) 1))
(assert (= (select O 100) 1))
(assert (= (select O 101) 1))
(assert (= (select O 102) 1))
(assert (= (select O 103) 1))
(assert (= (select O 104) 1))
(assert (= (select O 105) 2))
(assert (= (select O 106) 2))
(assert (= (select O 107) 1))
(assert (= (select O 108) 1))
(assert (= (select O 109) 1))
(assert (= (select O 110) 1))
(assert (= (select O 111) 1))
(assert (= (select O 112) 1))
(assert (= (select O 113) 2))
(assert (= (select O 114) 1))
(assert (= (select O 115) 1))
(assert (= (select O 116) 2))
(assert (= (select O 117) 1))
(assert (= (select O 118) 2))
(assert (= (select O 119) 1))
(assert (= (select O 120) 2))
(assert (= (select O 121) 1))
(assert (= (select O 122) 1))
(assert (= (select O 123) 1))
(assert (= (select O 124) 2))
(assert (= (select O 125) 1))
(assert (= (select O 126) 1))
(assert (= (select O 127) 2))
(assert (= (select O 128) 1))
(assert (= (select O 129) 2))
(assert (= (select O 130) 1))
(assert (= (select O 131) 2))
(assert (= (select O 132) 1))
(assert (= (select O 133) 1))
(assert (= (select O 134) 1))
(assert (= (select O 135) 1))
(assert (= (select O 136) 1))
(assert (= (select O 137) 2))
(assert (= (select O 138) 1))
(assert (= (select O 139) 1))
(assert (= (select O 140) 1))
(assert (= (select O 141) 1))
(assert (= (select O 142) 1))
(assert (= (select O 143) 2))
(assert (= (select O 144) 1))
(assert (= (select O 145) 1))
(assert (= (select O 146) 1))
(assert (= (select O 147) 1))
(assert (= (select O 148) 1))
(assert (= (select O 149) 1))
(assert (= (select O 150) 1))
(assert (= (select O 151) 1))
(assert (= (select O 152) 1))
(assert (= (select O 153) 1))
(assert (= (select O 154) 1))
(assert (= (select O 155) 2))
(assert (= (select O 156) 1))
(assert (= (select O 157) 1))
(assert (= (select O 158) 1))
(assert (= (select O 159) 1))
(assert (= (select O 160) 1))
(assert (= (select O 161) 1))
(assert (= (select O 162) 1))
(assert (= (select O 163) 1))
(assert (= (select O 164) 1))
(assert (= (select O 165) 1))
(assert (= (select O 166) 2))
(assert (= (select O 167) 1))
(assert (= (select O 168) 1))
(assert (= (select O 169) 2))
(assert (= (select O 170) 2))
(assert (= (select O 171) 1))
(assert (= (select O 172) 2))
(assert (= (select O 173) 1))
(assert (= (select O 174) 2))
(assert (= (select O 175) 2))
(assert (= (select O 176) 1))
(assert (= (select O 177) 1))
(assert (= (select O 178) 1))
(assert (= (select O 179) 1))
(assert (= (select O 180) 2))
(assert (= (select O 181) 2))
(assert (= (select O 182) 2))
(assert (= (select O 183) 1))
(assert (= (select O 184) 2))
(assert (= (select O 185) 1))
(assert (= (select O 186) 2))
(assert (= (select O 187) 1))
(assert (= (select O 188) 2))
(assert (= (select O 189) 1))
(assert (= (select O 190) 2))
(assert (= (select O 191) 2))
(assert (= (select O 192) 2))
(assert (= (select O 193) 1))
(assert (= (select O 194) 2))
(assert (= (select O 195) 2))
(assert (= (select O 196) 1))
(assert (= (select O 197) 2))
(assert (= (select O 198) 1))
(assert (= (select O 199) 2))


; ===== auxiliary lemma: global balancedness (German) =====

(define-fun threshold () Int 50)

(declare-const c1 Int)
(declare-const c2 Int)

(define-fun sum1 () Int
  (+
    (ite (= (select O 0) 1) 1 0)
    (ite (= (select O 1) 1) 1 0)
    (ite (= (select O 2) 1) 1 0)
    (ite (= (select O 3) 1) 1 0)
    (ite (= (select O 4) 1) 1 0)
    (ite (= (select O 5) 1) 1 0)
    (ite (= (select O 6) 1) 1 0)
    (ite (= (select O 7) 1) 1 0)
    (ite (= (select O 8) 1) 1 0)
    (ite (= (select O 9) 1) 1 0)
    (ite (= (select O 10) 1) 1 0)
    (ite (= (select O 11) 1) 1 0)
    (ite (= (select O 12) 1) 1 0)
    (ite (= (select O 13) 1) 1 0)
    (ite (= (select O 14) 1) 1 0)
    (ite (= (select O 15) 1) 1 0)
    (ite (= (select O 16) 1) 1 0)
    (ite (= (select O 17) 1) 1 0)
    (ite (= (select O 18) 1) 1 0)
    (ite (= (select O 19) 1) 1 0)
    (ite (= (select O 20) 1) 1 0)
    (ite (= (select O 21) 1) 1 0)
    (ite (= (select O 22) 1) 1 0)
    (ite (= (select O 23) 1) 1 0)
    (ite (= (select O 24) 1) 1 0)
    (ite (= (select O 25) 1) 1 0)
    (ite (= (select O 26) 1) 1 0)
    (ite (= (select O 27) 1) 1 0)
    (ite (= (select O 28) 1) 1 0)
    (ite (= (select O 29) 1) 1 0)
    (ite (= (select O 30) 1) 1 0)
    (ite (= (select O 31) 1) 1 0)
    (ite (= (select O 32) 1) 1 0)
    (ite (= (select O 33) 1) 1 0)
    (ite (= (select O 34) 1) 1 0)
    (ite (= (select O 35) 1) 1 0)
    (ite (= (select O 36) 1) 1 0)
    (ite (= (select O 37) 1) 1 0)
    (ite (= (select O 38) 1) 1 0)
    (ite (= (select O 39) 1) 1 0)
    (ite (= (select O 40) 1) 1 0)
    (ite (= (select O 41) 1) 1 0)
    (ite (= (select O 42) 1) 1 0)
    (ite (= (select O 43) 1) 1 0)
    (ite (= (select O 44) 1) 1 0)
    (ite (= (select O 45) 1) 1 0)
    (ite (= (select O 46) 1) 1 0)
    (ite (= (select O 47) 1) 1 0)
    (ite (= (select O 48) 1) 1 0)
    (ite (= (select O 49) 1) 1 0)
    (ite (= (select O 50) 1) 1 0)
    (ite (= (select O 51) 1) 1 0)
    (ite (= (select O 52) 1) 1 0)
    (ite (= (select O 53) 1) 1 0)
    (ite (= (select O 54) 1) 1 0)
    (ite (= (select O 55) 1) 1 0)
    (ite (= (select O 56) 1) 1 0)
    (ite (= (select O 57) 1) 1 0)
    (ite (= (select O 58) 1) 1 0)
    (ite (= (select O 59) 1) 1 0)
    (ite (= (select O 60) 1) 1 0)
    (ite (= (select O 61) 1) 1 0)
    (ite (= (select O 62) 1) 1 0)
    (ite (= (select O 63) 1) 1 0)
    (ite (= (select O 64) 1) 1 0)
    (ite (= (select O 65) 1) 1 0)
    (ite (= (select O 66) 1) 1 0)
    (ite (= (select O 67) 1) 1 0)
    (ite (= (select O 68) 1) 1 0)
    (ite (= (select O 69) 1) 1 0)
    (ite (= (select O 70) 1) 1 0)
    (ite (= (select O 71) 1) 1 0)
    (ite (= (select O 72) 1) 1 0)
    (ite (= (select O 73) 1) 1 0)
    (ite (= (select O 74) 1) 1 0)
    (ite (= (select O 75) 1) 1 0)
    (ite (= (select O 76) 1) 1 0)
    (ite (= (select O 77) 1) 1 0)
    (ite (= (select O 78) 1) 1 0)
    (ite (= (select O 79) 1) 1 0)
    (ite (= (select O 80) 1) 1 0)
    (ite (= (select O 81) 1) 1 0)
    (ite (= (select O 82) 1) 1 0)
    (ite (= (select O 83) 1) 1 0)
    (ite (= (select O 84) 1) 1 0)
    (ite (= (select O 85) 1) 1 0)
    (ite (= (select O 86) 1) 1 0)
    (ite (= (select O 87) 1) 1 0)
    (ite (= (select O 88) 1) 1 0)
    (ite (= (select O 89) 1) 1 0)
    (ite (= (select O 90) 1) 1 0)
    (ite (= (select O 91) 1) 1 0)
    (ite (= (select O 92) 1) 1 0)
    (ite (= (select O 93) 1) 1 0)
    (ite (= (select O 94) 1) 1 0)
    (ite (= (select O 95) 1) 1 0)
    (ite (= (select O 96) 1) 1 0)
    (ite (= (select O 97) 1) 1 0)
    (ite (= (select O 98) 1) 1 0)
    (ite (= (select O 99) 1) 1 0)
    (ite (= (select O 100) 1) 1 0)
    (ite (= (select O 101) 1) 1 0)
    (ite (= (select O 102) 1) 1 0)
    (ite (= (select O 103) 1) 1 0)
    (ite (= (select O 104) 1) 1 0)
    (ite (= (select O 105) 1) 1 0)
    (ite (= (select O 106) 1) 1 0)
    (ite (= (select O 107) 1) 1 0)
    (ite (= (select O 108) 1) 1 0)
    (ite (= (select O 109) 1) 1 0)
    (ite (= (select O 110) 1) 1 0)
    (ite (= (select O 111) 1) 1 0)
    (ite (= (select O 112) 1) 1 0)
    (ite (= (select O 113) 1) 1 0)
    (ite (= (select O 114) 1) 1 0)
    (ite (= (select O 115) 1) 1 0)
    (ite (= (select O 116) 1) 1 0)
    (ite (= (select O 117) 1) 1 0)
    (ite (= (select O 118) 1) 1 0)
    (ite (= (select O 119) 1) 1 0)
    (ite (= (select O 120) 1) 1 0)
    (ite (= (select O 121) 1) 1 0)
    (ite (= (select O 122) 1) 1 0)
    (ite (= (select O 123) 1) 1 0)
    (ite (= (select O 124) 1) 1 0)
    (ite (= (select O 125) 1) 1 0)
    (ite (= (select O 126) 1) 1 0)
    (ite (= (select O 127) 1) 1 0)
    (ite (= (select O 128) 1) 1 0)
    (ite (= (select O 129) 1) 1 0)
    (ite (= (select O 130) 1) 1 0)
    (ite (= (select O 131) 1) 1 0)
    (ite (= (select O 132) 1) 1 0)
    (ite (= (select O 133) 1) 1 0)
    (ite (= (select O 134) 1) 1 0)
    (ite (= (select O 135) 1) 1 0)
    (ite (= (select O 136) 1) 1 0)
    (ite (= (select O 137) 1) 1 0)
    (ite (= (select O 138) 1) 1 0)
    (ite (= (select O 139) 1) 1 0)
    (ite (= (select O 140) 1) 1 0)
    (ite (= (select O 141) 1) 1 0)
    (ite (= (select O 142) 1) 1 0)
    (ite (= (select O 143) 1) 1 0)
    (ite (= (select O 144) 1) 1 0)
    (ite (= (select O 145) 1) 1 0)
    (ite (= (select O 146) 1) 1 0)
    (ite (= (select O 147) 1) 1 0)
    (ite (= (select O 148) 1) 1 0)
    (ite (= (select O 149) 1) 1 0)
    (ite (= (select O 150) 1) 1 0)
    (ite (= (select O 151) 1) 1 0)
    (ite (= (select O 152) 1) 1 0)
    (ite (= (select O 153) 1) 1 0)
    (ite (= (select O 154) 1) 1 0)
    (ite (= (select O 155) 1) 1 0)
    (ite (= (select O 156) 1) 1 0)
    (ite (= (select O 157) 1) 1 0)
    (ite (= (select O 158) 1) 1 0)
    (ite (= (select O 159) 1) 1 0)
    (ite (= (select O 160) 1) 1 0)
    (ite (= (select O 161) 1) 1 0)
    (ite (= (select O 162) 1) 1 0)
    (ite (= (select O 163) 1) 1 0)
    (ite (= (select O 164) 1) 1 0)
    (ite (= (select O 165) 1) 1 0)
    (ite (= (select O 166) 1) 1 0)
    (ite (= (select O 167) 1) 1 0)
    (ite (= (select O 168) 1) 1 0)
    (ite (= (select O 169) 1) 1 0)
    (ite (= (select O 170) 1) 1 0)
    (ite (= (select O 171) 1) 1 0)
    (ite (= (select O 172) 1) 1 0)
    (ite (= (select O 173) 1) 1 0)
    (ite (= (select O 174) 1) 1 0)
    (ite (= (select O 175) 1) 1 0)
    (ite (= (select O 176) 1) 1 0)
    (ite (= (select O 177) 1) 1 0)
    (ite (= (select O 178) 1) 1 0)
    (ite (= (select O 179) 1) 1 0)
    (ite (= (select O 180) 1) 1 0)
    (ite (= (select O 181) 1) 1 0)
    (ite (= (select O 182) 1) 1 0)
    (ite (= (select O 183) 1) 1 0)
    (ite (= (select O 184) 1) 1 0)
    (ite (= (select O 185) 1) 1 0)
    (ite (= (select O 186) 1) 1 0)
    (ite (= (select O 187) 1) 1 0)
    (ite (= (select O 188) 1) 1 0)
    (ite (= (select O 189) 1) 1 0)
    (ite (= (select O 190) 1) 1 0)
    (ite (= (select O 191) 1) 1 0)
    (ite (= (select O 192) 1) 1 0)
    (ite (= (select O 193) 1) 1 0)
    (ite (= (select O 194) 1) 1 0)
    (ite (= (select O 195) 1) 1 0)
    (ite (= (select O 196) 1) 1 0)
    (ite (= (select O 197) 1) 1 0)
    (ite (= (select O 198) 1) 1 0)
    (ite (= (select O 199) 1) 1 0)
  )
)

(define-fun sum2 () Int
  (+
    (ite (= (select O 0) 2) 1 0)
    (ite (= (select O 1) 2) 1 0)
    (ite (= (select O 2) 2) 1 0)
    (ite (= (select O 3) 2) 1 0)
    (ite (= (select O 4) 2) 1 0)
    (ite (= (select O 5) 2) 1 0)
    (ite (= (select O 6) 2) 1 0)
    (ite (= (select O 7) 2) 1 0)
    (ite (= (select O 8) 2) 1 0)
    (ite (= (select O 9) 2) 1 0)
    (ite (= (select O 10) 2) 1 0)
    (ite (= (select O 11) 2) 1 0)
    (ite (= (select O 12) 2) 1 0)
    (ite (= (select O 13) 2) 1 0)
    (ite (= (select O 14) 2) 1 0)
    (ite (= (select O 15) 2) 1 0)
    (ite (= (select O 16) 2) 1 0)
    (ite (= (select O 17) 2) 1 0)
    (ite (= (select O 18) 2) 1 0)
    (ite (= (select O 19) 2) 1 0)
    (ite (= (select O 20) 2) 1 0)
    (ite (= (select O 21) 2) 1 0)
    (ite (= (select O 22) 2) 1 0)
    (ite (= (select O 23) 2) 1 0)
    (ite (= (select O 24) 2) 1 0)
    (ite (= (select O 25) 2) 1 0)
    (ite (= (select O 26) 2) 1 0)
    (ite (= (select O 27) 2) 1 0)
    (ite (= (select O 28) 2) 1 0)
    (ite (= (select O 29) 2) 1 0)
    (ite (= (select O 30) 2) 1 0)
    (ite (= (select O 31) 2) 1 0)
    (ite (= (select O 32) 2) 1 0)
    (ite (= (select O 33) 2) 1 0)
    (ite (= (select O 34) 2) 1 0)
    (ite (= (select O 35) 2) 1 0)
    (ite (= (select O 36) 2) 1 0)
    (ite (= (select O 37) 2) 1 0)
    (ite (= (select O 38) 2) 1 0)
    (ite (= (select O 39) 2) 1 0)
    (ite (= (select O 40) 2) 1 0)
    (ite (= (select O 41) 2) 1 0)
    (ite (= (select O 42) 2) 1 0)
    (ite (= (select O 43) 2) 1 0)
    (ite (= (select O 44) 2) 1 0)
    (ite (= (select O 45) 2) 1 0)
    (ite (= (select O 46) 2) 1 0)
    (ite (= (select O 47) 2) 1 0)
    (ite (= (select O 48) 2) 1 0)
    (ite (= (select O 49) 2) 1 0)
    (ite (= (select O 50) 2) 1 0)
    (ite (= (select O 51) 2) 1 0)
    (ite (= (select O 52) 2) 1 0)
    (ite (= (select O 53) 2) 1 0)
    (ite (= (select O 54) 2) 1 0)
    (ite (= (select O 55) 2) 1 0)
    (ite (= (select O 56) 2) 1 0)
    (ite (= (select O 57) 2) 1 0)
    (ite (= (select O 58) 2) 1 0)
    (ite (= (select O 59) 2) 1 0)
    (ite (= (select O 60) 2) 1 0)
    (ite (= (select O 61) 2) 1 0)
    (ite (= (select O 62) 2) 1 0)
    (ite (= (select O 63) 2) 1 0)
    (ite (= (select O 64) 2) 1 0)
    (ite (= (select O 65) 2) 1 0)
    (ite (= (select O 66) 2) 1 0)
    (ite (= (select O 67) 2) 1 0)
    (ite (= (select O 68) 2) 1 0)
    (ite (= (select O 69) 2) 1 0)
    (ite (= (select O 70) 2) 1 0)
    (ite (= (select O 71) 2) 1 0)
    (ite (= (select O 72) 2) 1 0)
    (ite (= (select O 73) 2) 1 0)
    (ite (= (select O 74) 2) 1 0)
    (ite (= (select O 75) 2) 1 0)
    (ite (= (select O 76) 2) 1 0)
    (ite (= (select O 77) 2) 1 0)
    (ite (= (select O 78) 2) 1 0)
    (ite (= (select O 79) 2) 1 0)
    (ite (= (select O 80) 2) 1 0)
    (ite (= (select O 81) 2) 1 0)
    (ite (= (select O 82) 2) 1 0)
    (ite (= (select O 83) 2) 1 0)
    (ite (= (select O 84) 2) 1 0)
    (ite (= (select O 85) 2) 1 0)
    (ite (= (select O 86) 2) 1 0)
    (ite (= (select O 87) 2) 1 0)
    (ite (= (select O 88) 2) 1 0)
    (ite (= (select O 89) 2) 1 0)
    (ite (= (select O 90) 2) 1 0)
    (ite (= (select O 91) 2) 1 0)
    (ite (= (select O 92) 2) 1 0)
    (ite (= (select O 93) 2) 1 0)
    (ite (= (select O 94) 2) 1 0)
    (ite (= (select O 95) 2) 1 0)
    (ite (= (select O 96) 2) 1 0)
    (ite (= (select O 97) 2) 1 0)
    (ite (= (select O 98) 2) 1 0)
    (ite (= (select O 99) 2) 1 0)
    (ite (= (select O 100) 2) 1 0)
    (ite (= (select O 101) 2) 1 0)
    (ite (= (select O 102) 2) 1 0)
    (ite (= (select O 103) 2) 1 0)
    (ite (= (select O 104) 2) 1 0)
    (ite (= (select O 105) 2) 1 0)
    (ite (= (select O 106) 2) 1 0)
    (ite (= (select O 107) 2) 1 0)
    (ite (= (select O 108) 2) 1 0)
    (ite (= (select O 109) 2) 1 0)
    (ite (= (select O 110) 2) 1 0)
    (ite (= (select O 111) 2) 1 0)
    (ite (= (select O 112) 2) 1 0)
    (ite (= (select O 113) 2) 1 0)
    (ite (= (select O 114) 2) 1 0)
    (ite (= (select O 115) 2) 1 0)
    (ite (= (select O 116) 2) 1 0)
    (ite (= (select O 117) 2) 1 0)
    (ite (= (select O 118) 2) 1 0)
    (ite (= (select O 119) 2) 1 0)
    (ite (= (select O 120) 2) 1 0)
    (ite (= (select O 121) 2) 1 0)
    (ite (= (select O 122) 2) 1 0)
    (ite (= (select O 123) 2) 1 0)
    (ite (= (select O 124) 2) 1 0)
    (ite (= (select O 125) 2) 1 0)
    (ite (= (select O 126) 2) 1 0)
    (ite (= (select O 127) 2) 1 0)
    (ite (= (select O 128) 2) 1 0)
    (ite (= (select O 129) 2) 1 0)
    (ite (= (select O 130) 2) 1 0)
    (ite (= (select O 131) 2) 1 0)
    (ite (= (select O 132) 2) 1 0)
    (ite (= (select O 133) 2) 1 0)
    (ite (= (select O 134) 2) 1 0)
    (ite (= (select O 135) 2) 1 0)
    (ite (= (select O 136) 2) 1 0)
    (ite (= (select O 137) 2) 1 0)
    (ite (= (select O 138) 2) 1 0)
    (ite (= (select O 139) 2) 1 0)
    (ite (= (select O 140) 2) 1 0)
    (ite (= (select O 141) 2) 1 0)
    (ite (= (select O 142) 2) 1 0)
    (ite (= (select O 143) 2) 1 0)
    (ite (= (select O 144) 2) 1 0)
    (ite (= (select O 145) 2) 1 0)
    (ite (= (select O 146) 2) 1 0)
    (ite (= (select O 147) 2) 1 0)
    (ite (= (select O 148) 2) 1 0)
    (ite (= (select O 149) 2) 1 0)
    (ite (= (select O 150) 2) 1 0)
    (ite (= (select O 151) 2) 1 0)
    (ite (= (select O 152) 2) 1 0)
    (ite (= (select O 153) 2) 1 0)
    (ite (= (select O 154) 2) 1 0)
    (ite (= (select O 155) 2) 1 0)
    (ite (= (select O 156) 2) 1 0)
    (ite (= (select O 157) 2) 1 0)
    (ite (= (select O 158) 2) 1 0)
    (ite (= (select O 159) 2) 1 0)
    (ite (= (select O 160) 2) 1 0)
    (ite (= (select O 161) 2) 1 0)
    (ite (= (select O 162) 2) 1 0)
    (ite (= (select O 163) 2) 1 0)
    (ite (= (select O 164) 2) 1 0)
    (ite (= (select O 165) 2) 1 0)
    (ite (= (select O 166) 2) 1 0)
    (ite (= (select O 167) 2) 1 0)
    (ite (= (select O 168) 2) 1 0)
    (ite (= (select O 169) 2) 1 0)
    (ite (= (select O 170) 2) 1 0)
    (ite (= (select O 171) 2) 1 0)
    (ite (= (select O 172) 2) 1 0)
    (ite (= (select O 173) 2) 1 0)
    (ite (= (select O 174) 2) 1 0)
    (ite (= (select O 175) 2) 1 0)
    (ite (= (select O 176) 2) 1 0)
    (ite (= (select O 177) 2) 1 0)
    (ite (= (select O 178) 2) 1 0)
    (ite (= (select O 179) 2) 1 0)
    (ite (= (select O 180) 2) 1 0)
    (ite (= (select O 181) 2) 1 0)
    (ite (= (select O 182) 2) 1 0)
    (ite (= (select O 183) 2) 1 0)
    (ite (= (select O 184) 2) 1 0)
    (ite (= (select O 185) 2) 1 0)
    (ite (= (select O 186) 2) 1 0)
    (ite (= (select O 187) 2) 1 0)
    (ite (= (select O 188) 2) 1 0)
    (ite (= (select O 189) 2) 1 0)
    (ite (= (select O 190) 2) 1 0)
    (ite (= (select O 191) 2) 1 0)
    (ite (= (select O 192) 2) 1 0)
    (ite (= (select O 193) 2) 1 0)
    (ite (= (select O 194) 2) 1 0)
    (ite (= (select O 195) 2) 1 0)
    (ite (= (select O 196) 2) 1 0)
    (ite (= (select O 197) 2) 1 0)
    (ite (= (select O 198) 2) 1 0)
    (ite (= (select O 199) 2) 1 0)
  )
)

(assert (= c1 sum1))
(assert (= c2 sum2))

(assert (and (<= 0 c1) (<= c1 m)))
(assert (and (<= 0 c2) (<= c2 m)))

(assert
  (and
    (or (= (select O 0) 1) (= (select O 0) 2))
    (or (= (select O 1) 1) (= (select O 1) 2))
    (or (= (select O 2) 1) (= (select O 2) 2))
    (or (= (select O 3) 1) (= (select O 3) 2))
    (or (= (select O 4) 1) (= (select O 4) 2))
    (or (= (select O 5) 1) (= (select O 5) 2))
    (or (= (select O 6) 1) (= (select O 6) 2))
    (or (= (select O 7) 1) (= (select O 7) 2))
    (or (= (select O 8) 1) (= (select O 8) 2))
    (or (= (select O 9) 1) (= (select O 9) 2))
    (or (= (select O 10) 1) (= (select O 10) 2))
    (or (= (select O 11) 1) (= (select O 11) 2))
    (or (= (select O 12) 1) (= (select O 12) 2))
    (or (= (select O 13) 1) (= (select O 13) 2))
    (or (= (select O 14) 1) (= (select O 14) 2))
    (or (= (select O 15) 1) (= (select O 15) 2))
    (or (= (select O 16) 1) (= (select O 16) 2))
    (or (= (select O 17) 1) (= (select O 17) 2))
    (or (= (select O 18) 1) (= (select O 18) 2))
    (or (= (select O 19) 1) (= (select O 19) 2))
    (or (= (select O 20) 1) (= (select O 20) 2))
    (or (= (select O 21) 1) (= (select O 21) 2))
    (or (= (select O 22) 1) (= (select O 22) 2))
    (or (= (select O 23) 1) (= (select O 23) 2))
    (or (= (select O 24) 1) (= (select O 24) 2))
    (or (= (select O 25) 1) (= (select O 25) 2))
    (or (= (select O 26) 1) (= (select O 26) 2))
    (or (= (select O 27) 1) (= (select O 27) 2))
    (or (= (select O 28) 1) (= (select O 28) 2))
    (or (= (select O 29) 1) (= (select O 29) 2))
    (or (= (select O 30) 1) (= (select O 30) 2))
    (or (= (select O 31) 1) (= (select O 31) 2))
    (or (= (select O 32) 1) (= (select O 32) 2))
    (or (= (select O 33) 1) (= (select O 33) 2))
    (or (= (select O 34) 1) (= (select O 34) 2))
    (or (= (select O 35) 1) (= (select O 35) 2))
    (or (= (select O 36) 1) (= (select O 36) 2))
    (or (= (select O 37) 1) (= (select O 37) 2))
    (or (= (select O 38) 1) (= (select O 38) 2))
    (or (= (select O 39) 1) (= (select O 39) 2))
    (or (= (select O 40) 1) (= (select O 40) 2))
    (or (= (select O 41) 1) (= (select O 41) 2))
    (or (= (select O 42) 1) (= (select O 42) 2))
    (or (= (select O 43) 1) (= (select O 43) 2))
    (or (= (select O 44) 1) (= (select O 44) 2))
    (or (= (select O 45) 1) (= (select O 45) 2))
    (or (= (select O 46) 1) (= (select O 46) 2))
    (or (= (select O 47) 1) (= (select O 47) 2))
    (or (= (select O 48) 1) (= (select O 48) 2))
    (or (= (select O 49) 1) (= (select O 49) 2))
    (or (= (select O 50) 1) (= (select O 50) 2))
    (or (= (select O 51) 1) (= (select O 51) 2))
    (or (= (select O 52) 1) (= (select O 52) 2))
    (or (= (select O 53) 1) (= (select O 53) 2))
    (or (= (select O 54) 1) (= (select O 54) 2))
    (or (= (select O 55) 1) (= (select O 55) 2))
    (or (= (select O 56) 1) (= (select O 56) 2))
    (or (= (select O 57) 1) (= (select O 57) 2))
    (or (= (select O 58) 1) (= (select O 58) 2))
    (or (= (select O 59) 1) (= (select O 59) 2))
    (or (= (select O 60) 1) (= (select O 60) 2))
    (or (= (select O 61) 1) (= (select O 61) 2))
    (or (= (select O 62) 1) (= (select O 62) 2))
    (or (= (select O 63) 1) (= (select O 63) 2))
    (or (= (select O 64) 1) (= (select O 64) 2))
    (or (= (select O 65) 1) (= (select O 65) 2))
    (or (= (select O 66) 1) (= (select O 66) 2))
    (or (= (select O 67) 1) (= (select O 67) 2))
    (or (= (select O 68) 1) (= (select O 68) 2))
    (or (= (select O 69) 1) (= (select O 69) 2))
    (or (= (select O 70) 1) (= (select O 70) 2))
    (or (= (select O 71) 1) (= (select O 71) 2))
    (or (= (select O 72) 1) (= (select O 72) 2))
    (or (= (select O 73) 1) (= (select O 73) 2))
    (or (= (select O 74) 1) (= (select O 74) 2))
    (or (= (select O 75) 1) (= (select O 75) 2))
    (or (= (select O 76) 1) (= (select O 76) 2))
    (or (= (select O 77) 1) (= (select O 77) 2))
    (or (= (select O 78) 1) (= (select O 78) 2))
    (or (= (select O 79) 1) (= (select O 79) 2))
    (or (= (select O 80) 1) (= (select O 80) 2))
    (or (= (select O 81) 1) (= (select O 81) 2))
    (or (= (select O 82) 1) (= (select O 82) 2))
    (or (= (select O 83) 1) (= (select O 83) 2))
    (or (= (select O 84) 1) (= (select O 84) 2))
    (or (= (select O 85) 1) (= (select O 85) 2))
    (or (= (select O 86) 1) (= (select O 86) 2))
    (or (= (select O 87) 1) (= (select O 87) 2))
    (or (= (select O 88) 1) (= (select O 88) 2))
    (or (= (select O 89) 1) (= (select O 89) 2))
    (or (= (select O 90) 1) (= (select O 90) 2))
    (or (= (select O 91) 1) (= (select O 91) 2))
    (or (= (select O 92) 1) (= (select O 92) 2))
    (or (= (select O 93) 1) (= (select O 93) 2))
    (or (= (select O 94) 1) (= (select O 94) 2))
    (or (= (select O 95) 1) (= (select O 95) 2))
    (or (= (select O 96) 1) (= (select O 96) 2))
    (or (= (select O 97) 1) (= (select O 97) 2))
    (or (= (select O 98) 1) (= (select O 98) 2))
    (or (= (select O 99) 1) (= (select O 99) 2))
    (or (= (select O 100) 1) (= (select O 100) 2))
    (or (= (select O 101) 1) (= (select O 101) 2))
    (or (= (select O 102) 1) (= (select O 102) 2))
    (or (= (select O 103) 1) (= (select O 103) 2))
    (or (= (select O 104) 1) (= (select O 104) 2))
    (or (= (select O 105) 1) (= (select O 105) 2))
    (or (= (select O 106) 1) (= (select O 106) 2))
    (or (= (select O 107) 1) (= (select O 107) 2))
    (or (= (select O 108) 1) (= (select O 108) 2))
    (or (= (select O 109) 1) (= (select O 109) 2))
    (or (= (select O 110) 1) (= (select O 110) 2))
    (or (= (select O 111) 1) (= (select O 111) 2))
    (or (= (select O 112) 1) (= (select O 112) 2))
    (or (= (select O 113) 1) (= (select O 113) 2))
    (or (= (select O 114) 1) (= (select O 114) 2))
    (or (= (select O 115) 1) (= (select O 115) 2))
    (or (= (select O 116) 1) (= (select O 116) 2))
    (or (= (select O 117) 1) (= (select O 117) 2))
    (or (= (select O 118) 1) (= (select O 118) 2))
    (or (= (select O 119) 1) (= (select O 119) 2))
    (or (= (select O 120) 1) (= (select O 120) 2))
    (or (= (select O 121) 1) (= (select O 121) 2))
    (or (= (select O 122) 1) (= (select O 122) 2))
    (or (= (select O 123) 1) (= (select O 123) 2))
    (or (= (select O 124) 1) (= (select O 124) 2))
    (or (= (select O 125) 1) (= (select O 125) 2))
    (or (= (select O 126) 1) (= (select O 126) 2))
    (or (= (select O 127) 1) (= (select O 127) 2))
    (or (= (select O 128) 1) (= (select O 128) 2))
    (or (= (select O 129) 1) (= (select O 129) 2))
    (or (= (select O 130) 1) (= (select O 130) 2))
    (or (= (select O 131) 1) (= (select O 131) 2))
    (or (= (select O 132) 1) (= (select O 132) 2))
    (or (= (select O 133) 1) (= (select O 133) 2))
    (or (= (select O 134) 1) (= (select O 134) 2))
    (or (= (select O 135) 1) (= (select O 135) 2))
    (or (= (select O 136) 1) (= (select O 136) 2))
    (or (= (select O 137) 1) (= (select O 137) 2))
    (or (= (select O 138) 1) (= (select O 138) 2))
    (or (= (select O 139) 1) (= (select O 139) 2))
    (or (= (select O 140) 1) (= (select O 140) 2))
    (or (= (select O 141) 1) (= (select O 141) 2))
    (or (= (select O 142) 1) (= (select O 142) 2))
    (or (= (select O 143) 1) (= (select O 143) 2))
    (or (= (select O 144) 1) (= (select O 144) 2))
    (or (= (select O 145) 1) (= (select O 145) 2))
    (or (= (select O 146) 1) (= (select O 146) 2))
    (or (= (select O 147) 1) (= (select O 147) 2))
    (or (= (select O 148) 1) (= (select O 148) 2))
    (or (= (select O 149) 1) (= (select O 149) 2))
    (or (= (select O 150) 1) (= (select O 150) 2))
    (or (= (select O 151) 1) (= (select O 151) 2))
    (or (= (select O 152) 1) (= (select O 152) 2))
    (or (= (select O 153) 1) (= (select O 153) 2))
    (or (= (select O 154) 1) (= (select O 154) 2))
    (or (= (select O 155) 1) (= (select O 155) 2))
    (or (= (select O 156) 1) (= (select O 156) 2))
    (or (= (select O 157) 1) (= (select O 157) 2))
    (or (= (select O 158) 1) (= (select O 158) 2))
    (or (= (select O 159) 1) (= (select O 159) 2))
    (or (= (select O 160) 1) (= (select O 160) 2))
    (or (= (select O 161) 1) (= (select O 161) 2))
    (or (= (select O 162) 1) (= (select O 162) 2))
    (or (= (select O 163) 1) (= (select O 163) 2))
    (or (= (select O 164) 1) (= (select O 164) 2))
    (or (= (select O 165) 1) (= (select O 165) 2))
    (or (= (select O 166) 1) (= (select O 166) 2))
    (or (= (select O 167) 1) (= (select O 167) 2))
    (or (= (select O 168) 1) (= (select O 168) 2))
    (or (= (select O 169) 1) (= (select O 169) 2))
    (or (= (select O 170) 1) (= (select O 170) 2))
    (or (= (select O 171) 1) (= (select O 171) 2))
    (or (= (select O 172) 1) (= (select O 172) 2))
    (or (= (select O 173) 1) (= (select O 173) 2))
    (or (= (select O 174) 1) (= (select O 174) 2))
    (or (= (select O 175) 1) (= (select O 175) 2))
    (or (= (select O 176) 1) (= (select O 176) 2))
    (or (= (select O 177) 1) (= (select O 177) 2))
    (or (= (select O 178) 1) (= (select O 178) 2))
    (or (= (select O 179) 1) (= (select O 179) 2))
    (or (= (select O 180) 1) (= (select O 180) 2))
    (or (= (select O 181) 1) (= (select O 181) 2))
    (or (= (select O 182) 1) (= (select O 182) 2))
    (or (= (select O 183) 1) (= (select O 183) 2))
    (or (= (select O 184) 1) (= (select O 184) 2))
    (or (= (select O 185) 1) (= (select O 185) 2))
    (or (= (select O 186) 1) (= (select O 186) 2))
    (or (= (select O 187) 1) (= (select O 187) 2))
    (or (= (select O 188) 1) (= (select O 188) 2))
    (or (= (select O 189) 1) (= (select O 189) 2))
    (or (= (select O 190) 1) (= (select O 190) 2))
    (or (= (select O 191) 1) (= (select O 191) 2))
    (or (= (select O 192) 1) (= (select O 192) 2))
    (or (= (select O 193) 1) (= (select O 193) 2))
    (or (= (select O 194) 1) (= (select O 194) 2))
    (or (= (select O 195) 1) (= (select O 195) 2))
    (or (= (select O 196) 1) (= (select O 196) 2))
    (or (= (select O 197) 1) (= (select O 197) 2))
    (or (= (select O 198) 1) (= (select O 198) 2))
    (or (= (select O 199) 1) (= (select O 199) 2))
  )
)

(assert (= (+ c1 c2) m))

(assert (and (>= c1 threshold) (>= c2 threshold)))
(check-sat)
; ========================================================
